TCS_Benchmarks/redos_fix/snort3_output_distinct_2134_2133_24_0.txt
[^\n\r]*
([^\n\r]*)([kK][iI][tT])([^\n\r]*)
[^\n\r]*